db/data/271605601901422329180526852156323490.z3.out
sat
-------------------
1.864541901
